(declare-const |z':72| Int)
(declare-const |K:82| Int)
(declare-const |phi_tmp___3:32:34| Int)
(declare-const |phi_tmp___3:24:31:33| Int)
(declare-const |tmp___2':73| Int)
(declare-const havoc Int)
(declare-const |w':69| Int)
(declare-const |x':70| Int)
(declare-const |havoc:3| Int)
(declare-const |havoc:6:63| Int)
(declare-const |y':71| Int)
(declare-const tmp___2 Int)
(assert (and (<= (- havoc) 0) (<= (- |havoc:3|) 0)
               (or (not (and (<= (- |K:82|) 0) (<= |K:82| 0)))
                     (= (+ (- |y':71|) |w':69| (- |K:82|) |havoc:3| (- havoc)) 0))
               (or (not (<= (+ (- |K:82|) 1) 0))
                     (= (+ (- |y':71|) |w':69| (- |K:82|) |havoc:3| (- havoc)) 0))
               (or (not (and (<= (- |K:82|) 0) (<= |K:82| 0)))
                     (= (+ |z':72| (- |y':71|)) 0))
               (or (not (<= (+ (- |K:82|) 1) 0))
                     (= (+ |z':72| (- |y':71|)) 0))
               (or (not (and (<= (- |K:82|) 0) (<= |K:82| 0)))
                     (= (+ |x':70| (- |y':71|) (- |K:82|) |havoc:3| (- havoc)) 0))
               (or (not (<= (+ (- |K:82|) 1) 0))
                     (= (+ |x':70| (- |y':71|) (- |K:82|) |havoc:3| (- havoc)) 0))
               (or (not (<= (- |K:82|) 0)) (<= (+ |z':72| (- |havoc:3|)) 0))
               (or (not (<= (- |K:82|) 0))
                     (<= (+ (- |z':72|) (- |K:82|) |havoc:3|) 0))
               (or (and (= |K:82| 0) (= (+ (- |tmp___2':73|) tmp___2) 0)
                          (= (+ (- |z':72|) |havoc:3|) 0)
                          (= (+ (- |y':71|) |havoc:3|) 0)
                          (= (+ (- |x':70|) havoc) 0)
                          (= (+ (- |w':69|) havoc) 0))
                     (and (<= (+ (- |K:82|) 1) 0) (<= (- havoc) 0)
                            (= (+ (- |x':70|) |w':69|) 0)
                            (= (+ (- |z':72|) |y':71|) 0)
                            (<= (+ (- |tmp___2':73|) 1) 0) (<= (- |x':70|) 0)))
               (<= (- |K:82|) 0) (<= (- |x':70|) 0) (<= (- |w':69|) 0)
               (= (+ |x':70| (- |w':69|)) 0) (= (+ |z':72| (- |y':71|)) 0)
               (<= (- |havoc:6:63|) 0) (= |havoc:6:63| 0)
               (or (and (= (+ (- |x':70|) |w':69|) 0)
                          (or (and (not (= (+ (- |z':72|) |y':71|) 0))
                                     (= (- |phi_tmp___3:24:31:33|) 0))
                                (and (= (+ (- |z':72|) |y':71|) 0)
                                       (= (+ (- |phi_tmp___3:24:31:33|) 1) 0)))
                          (= (+ (- |phi_tmp___3:32:34|)
                                  |phi_tmp___3:24:31:33|) 0))
                     (and (not (= (+ (- |x':70|) |w':69|) 0))
                            (= (- |phi_tmp___3:32:34|) 0)))
               (= |phi_tmp___3:32:34| 0)))
(check-sat)
